%block LATTICE_CART ! In Angstroms
    6.265    0.0000    0.0000
    0.0000    9.397    0.0000
    0.0000    0.0000    99.0
%endblock LATTICE_CART

%block POSITIONS_ABS
   1      0.000000      8.480300     -0.683800
   1      0.000000      6.793200     -0.683800
   1      0.000000      5.425600     -0.683800
   1      3.054700      8.480300     -0.683800
   1      0.000000      3.738500     -0.683800
   1      0.000000      2.370900     -0.683800
   1      3.054700      6.793200     -0.683800
   1      0.000000      0.683800     -0.683800
   1      3.054700      5.425600     -0.683800
   1      3.054700      3.738500     -0.683800
   1      3.054700      2.370900     -0.683800
   1      3.054700      0.683800     -0.683800
   6      1.527400      3.055300      6.429600
   6      4.582000      3.055300      6.429600
   6      1.527300      0.000500      6.428400
   6      4.582100      0.000500      6.428400
   6      1.527300      6.110100      6.428300
   6      4.582100      6.110100      6.428300
   6      0.000000      1.528700      4.298400
   6      3.054700      1.528700      4.298400
   6      0.000000      4.582800      4.298300
   6      3.054700      4.582800      4.298300
   6      0.000000      7.637900      4.297700
   6      3.054700      7.637900      4.297700
   6      4.582000      6.110200      2.153200
   6      1.527300      6.110200      2.153200
   6      1.527300      0.001000      2.153100
   6      4.582000      0.001000      2.153100
   6      4.582000      3.055600      2.153000
   6      1.527300      3.055600      2.153000
   6      0.000000      1.527300      0.000000
   6      3.054700      1.527300      0.000000
   6      0.000000      7.636700      0.000000
   6      0.000000      4.582000      0.000000
   6      3.054700      7.636700      0.000000
   6      3.054700      4.582000      0.000000
  14      1.527300      1.528400      9.761800
  14      1.527300      4.582300      9.761700
  14      0.027299      1.528400      8.661800
  14      3.082100      1.528400      8.661800
  14      0.027299      4.582300      8.661700
  14      3.082100      4.582300      8.661700
  14      0.000000      3.055000      7.516900
  14      3.054700      3.055000      7.516900
  14      0.000000     -0.001600      7.515600
  14      3.054700     -0.001600      7.515600
  14      0.000000      6.110900      7.515400
  14      3.054700      6.110900      7.515400
  14      1.527300      1.528400      5.361800
  14      4.582100      1.528400      5.361800
  14      1.527300      4.582300      5.361700
  14      4.582100      4.582300      5.361700
  14      1.527400      7.637500      5.360900
  14      4.582000      7.637500      5.360900
  14      0.000000      0.001500      3.222700
  14      0.000000      6.110100      3.222700
  14      3.054700      6.110100      3.222700
  14      3.054700      0.001500      3.222700
  14      3.054700      3.055700      3.222500
  14      0.000000      3.055700      3.222500
  14      1.527300      1.528500      1.080000
  14      4.582000      4.583200      1.080000
  14      1.527300      7.637900      1.080000
  14      4.582000      7.637900      1.080000
  14      4.582000      1.528500      1.080000
  14      1.527300      4.583200      1.080000
%endblock POSITIONS_ABS

%BLOCK IONIC_CONSTRAINTS
1     H  1    1 0 0
2     H  1    0 1 0
3     H  1    0 0 1
4     H  2    1 0 0
5     H  2    0 1 0
6     H  2    0 0 1
7     H  3    1 0 0
8     H  3    0 1 0
9     H  3    0 0 1
10     H  4    1 0 0
11     H  4    0 1 0
12     H  4    0 0 1
13     H  5    1 0 0
14     H  5    0 1 0
15     H  5    0 0 1
16     H  6    1 0 0
17     H  6    0 1 0
18     H  6    0 0 1
19     H  7    1 0 0
20     H  7    0 1 0
21     H  7    0 0 1
22     H  8    1 0 0
23     H  8    0 1 0
24     H  8    0 0 1
25     H  9    1 0 0
26     H  9    0 1 0
27     H  9    0 0 1
28     H  10    1 0 0
29     H  10    0 1 0
30     H  10    0 0 1
31     H  11    1 0 0
32     H  11    0 1 0
33     H  11    0 0 1
34     H  12    1 0 0
35     H  12    0 1 0
36     H  12    0 0 1
37     C  19    1 0 0
38     C  19    0 1 0
39     C  19    0 0 1
40     C  20    1 0 0
41     C  20    0 1 0
42     C  20    0 0 1
43     C  21    1 0 0
44     C  21    0 1 0
45     C  21    0 0 1
46     C  22    1 0 0
47     C  22    0 1 0
48     C  22    0 0 1
49     C  23    1 0 0
50     C  23    0 1 0
51     C  23    0 0 1
52     C  24    1 0 0
53     C  24    0 1 0
54     C  24    0 0 1
55     Si  25    1 0 0
56     Si  25    0 1 0
57     Si  25    0 0 1
58     Si  26    1 0 0
59     Si  26    0 1 0
60     Si  26    0 0 1
61     Si  27    1 0 0
62     Si  27    0 1 0
63     Si  27    0 0 1
64     Si  28    1 0 0
65     Si  28    0 1 0
66     Si  28    0 0 1
67     Si  29    1 0 0
68     Si  29    0 1 0
69     Si  29    0 0 1
70     Si  30    1 0 0
71     Si  30    0 1 0
72     Si  30    0 0 1
%ENDBLOCK IONIC_CONSTRAINTS
