fullerene:                                    
   1.00000000000000
   15.211330900000000   0.0000000000000000   0.0000000000000000
   0.0000000000000000   15.211330900000000   0.0000000000000000
   0.0000000000000000   0.0000000000000000   15.211330900000000
  60 6
Selective dynamics
Cartesian
       0.0000  0.6923  3.4430 T T T 
       0.0000  0.6923 -3.4430 T T T
       0.0000 -0.6923  3.4430 T T T
       0.0000 -0.6923 -3.4430 T T T
       0.6923  3.4430  0.0000 T T T
       0.6923 -3.4430  0.0000 T T T
      -0.6923  3.4430  0.0000 T T T
      -0.6923 -3.4430  0.0000 T T T
       3.4430  0.0000  0.6923 T T T
       3.4430  0.0000 -0.6923 T T T
      -3.4430  0.0000  0.6923 T T T
      -3.4430  0.0000 -0.6923 T T T
       1.4102  3.0009  1.1624 T T T
       1.4102  3.0009 -1.1624 T T T
       1.4102 -3.0009  1.1624 T T T
       1.4102 -3.0009 -1.1624 T T T
      -1.4102  3.0009  1.1624 T T T
      -1.4102  3.0010 -1.1624 T T T
      -1.4102 -3.0009  1.1624 T T T
      -1.4102 -3.0010 -1.1624 T T T
       3.0009  1.1624  1.4102 T T T
       3.0009  1.1624 -1.4102 T T T
       3.0009 -1.1624  1.4102 T T T
       3.0009 -1.1624 -1.4102 T T T
      -3.0009  1.1624  1.4102 T T T
      -3.0009  1.1624 -1.4102 T T T
      -3.0009 -1.1624  1.4102 T T T
      -3.0009 -1.1624 -1.4102 T T T
       1.1624  1.4102  3.0009 T T T
       1.1624  1.4102 -3.0009 T T T
       1.1624 -1.4102  3.0009 T T T
       1.1624 -1.4102 -3.0009 T T T
      -1.1624  1.4102  3.0009 T T T
      -1.1624  1.4102 -3.0009 T T T
      -1.1624 -1.4102  3.0009 T T T
      -1.1624 -1.4102 -3.0009 T T T
       0.7190  2.5721  2.2823 T T T
       0.7190  2.5721 -2.2823 T T T
       0.7190 -2.5721  2.2823 T T T
       0.7190 -2.5721 -2.2823 T T T
      -0.7190  2.5721  2.2823 T T T
      -0.7190  2.5721 -2.2823 T T T
      -0.7190 -2.5721  2.2823 T T T
      -0.7190 -2.5721 -2.2823 T T T
       2.5721  2.2823  0.7190 T T T
       2.5721  2.2823 -0.7190 T T T
       2.5721 -2.2823  0.7190 T T T
       2.5721 -2.2823 -0.7190 T T T
      -2.5721  2.2823  0.7190 T T T
      -2.5721  2.2823 -0.7190 T T T
      -2.5721 -2.2823  0.7190 T T T
      -2.5721 -2.2823 -0.7190 T T T
       2.2823  0.7190  2.5721 T T T
       2.2823  0.7190 -2.5721 T T T
       2.2823 -0.7190  2.5721 T T T
       2.2823 -0.7190 -2.5721 T T T
      -2.2823  0.7190  2.5721 F F F
      -2.2823  0.7190 -2.5721 F F F
      -2.2823 -0.7190  2.5721 F F F
      -2.2823 -0.7190 -2.5721 F F F
