fullerene:                                    
   1.00000000000000
   15.211330900000000   0.0000000000000000   0.0000000000000000
   0.0000000000000000   15.211330900000000   0.0000000000000000
   0.0000000000000000   0.0000000000000000   15.211330900000000
   6 6
Selective dynamics
Cartesian
   1.034111        1.796136        0.000139 T T T
   2.070647        0.000514        0.000059 T T T
  -1.034910        1.795351        0.000047 T T T
  -2.071324        0.001713       -0.000024 T T T
   1.034806       -1.792198       -0.000045 T T T
  -1.036381       -1.791703       -0.000137 T T T
   0.582351        1.009979        0.000079 T T T
   1.164326        0.000910        0.000044 T T T
  -0.582315        1.010140        0.000028 T T T
   0.581585       -1.007338       -0.000026 T T T
  -1.165016        0.001807       -0.000052 T T T
  -0.583004       -1.006943       -0.000077 T T T
